(set-logic QF_S)
(declare-fun var0 () String)
(assert (str.in.re var0 (re.++ (re.+ (re.+ (str.to.re "00"))) (re.++ (re.+ (re.+ (str.to.re "111"))) (re.++ (re.+ (re.* (str.to.re "222"))) (re.++ (re.union (re.* (str.to.re "3")) (re.* (str.to.re "4"))) (re.++ (re.union (re.+ (str.to.re "5")) (re.+ (str.to.re "66"))) (re.++ (re.union (re.* (str.to.re "77")) (re.* (str.to.re "88"))) (re.++ (re.union (re.union (str.to.re "9") (str.to.re "aaa")) (re.union (str.to.re "bb") (str.to.re "cc"))) (re.++ (re.+ (re.union (str.to.re "d") (str.to.re "e"))) (re.++ (re.union (re.* (str.to.re "f")) (re.* (str.to.re "g"))) (re.* (re.+ (str.to.re "hh"))))))))))))))
(assert (str.in.re var0 (re.++ (re.union (re.* (str.to.re "0")) (re.* (str.to.re "11"))) (re.++ (re.+ (re.* (str.to.re "22"))) (re.++ (re.* (re.* (str.to.re "333"))) (re.++ (re.+ (re.union (str.to.re "44") (str.to.re "55"))) (re.++ (re.union (re.union (str.to.re "666") (str.to.re "7")) (re.union (str.to.re "88") (str.to.re "99"))) (re.++ (re.+ (re.union (str.to.re "a") (str.to.re "bb"))) (re.++ (re.+ (re.union (str.to.re "c") (str.to.re "ddd"))) (re.++ (re.* (re.+ (str.to.re "ee"))) (re.++ (re.* (re.* (str.to.re "fff"))) (re.* (re.* (str.to.re "gg"))))))))))))))
(assert (str.in.re var0 (re.++ (re.* (re.* (str.to.re "000"))) (re.++ (re.* (re.+ (str.to.re "11"))) (re.++ (re.+ (re.union (str.to.re "222") (str.to.re "3"))) (re.++ (re.+ (re.* (str.to.re "444"))) (re.++ (re.* (re.+ (str.to.re "5"))) (re.++ (re.union (re.union (str.to.re "666") (str.to.re "777")) (re.union (str.to.re "88") (str.to.re "9"))) (re.++ (re.union (re.+ (str.to.re "aaa")) (re.+ (str.to.re "bbb"))) (re.++ (re.* (re.+ (str.to.re "cc"))) (re.++ (re.* (re.union (str.to.re "ddd") (str.to.re "e"))) (re.union (re.+ (str.to.re "f")) (re.+ (str.to.re "g"))))))))))))))
(assert (str.in.re var0 (re.++ (re.union (re.+ (str.to.re "0")) (re.+ (str.to.re "111"))) (re.++ (re.* (re.* (str.to.re "2"))) (re.++ (re.* (re.* (str.to.re "3"))) (re.++ (re.+ (re.* (str.to.re "4"))) (re.++ (re.* (re.+ (str.to.re "55"))) (re.++ (re.+ (re.* (str.to.re "66"))) (re.++ (re.union (re.union (str.to.re "777") (str.to.re "88")) (re.union (str.to.re "99") (str.to.re "a"))) (re.++ (re.union (re.union (str.to.re "b") (str.to.re "ccc")) (re.union (str.to.re "dd") (str.to.re "e"))) (re.++ (re.* (re.* (str.to.re "ff"))) (re.union (re.union (str.to.re "gg") (str.to.re "h")) (re.union (str.to.re "iii") (str.to.re "j"))))))))))))))
(check-sat)